33D32945 STP File, STP Format Version 1.0

SECTION Comment
Name    "Series C" 
Creator "A. M. Costa" 
Format  "Z.H. Fu and J. K. Hao"
Remark  "Sparse graph with random weights"
#TotalEdgeCost 3422
#BudgetFraction 10
END 

SECTION Graph 
Nodes 500 
Edges 625 
Root 1
Budget 342
HopLimit 5
E 1 277 1 
E 1 348 6 
E 1 475 6 
E 2 74 3 
E 2 321 4 
E 2 474 5 
E 3 405 2 
E 4 278 9 
E 5 40 2 
E 5 81 8 
E 5 189 10 
E 5 388 6 
E 6 136 6 
E 6 156 9 
E 6 320 5 
E 6 348 2 
E 7 15 4 
E 7 147 1 
E 8 282 7 
E 9 16 3 
E 9 140 6 
E 9 231 6 
E 9 421 4 
E 10 94 4 
E 10 132 10 
E 10 188 6 
E 11 235 6 
E 11 326 4 
E 12 23 6 
E 12 36 6 
E 12 380 7 
E 12 479 2 
E 13 51 9 
E 13 141 3 
E 13 154 3 
E 13 320 7 
E 13 378 3 
E 14 231 3 
E 15 38 3 
E 16 114 2 
E 16 473 3 
E 17 116 10 
E 17 282 8 
E 18 38 2 
E 19 32 7 
E 19 91 7 
E 19 99 2 
E 20 84 6 
E 20 165 9 
E 20 362 7 
E 21 482 10 
E 22 163 2 
E 23 192 9 
E 23 284 10 
E 23 498 5 
E 24 85 7 
E 24 98 2 
E 24 138 4 
E 24 366 10 
E 25 122 3 
E 26 45 7 
E 26 170 9 
E 27 132 1 
E 27 178 4 
E 27 219 2 
E 28 61 4 
E 29 336 8 
E 30 213 10 
E 30 454 9 
E 30 477 8 
E 31 86 9 
E 31 92 4 
E 31 408 9 
E 33 223 3 
E 33 412 8 
E 33 478 6 
E 34 64 6 
E 34 498 7 
E 35 301 9 
E 36 406 8 
E 36 418 3 
E 37 271 8 
E 38 66 2 
E 38 163 8 
E 38 472 9 
E 39 63 8 
E 39 353 3 
E 39 468 2 
E 39 471 2 
E 40 123 6 
E 40 169 5 
E 41 293 5 
E 42 340 7 
E 42 427 8 
E 43 321 1 
E 43 420 7 
E 43 478 7 
E 44 387 3 
E 45 348 3 
E 46 495 4 
E 47 125 4 
E 47 163 6 
E 47 257 9 
E 48 111 7 
E 48 339 5 
E 48 383 3 
E 48 473 5 
E 49 111 6 
E 50 171 5 
E 52 102 2 
E 52 499 8 
E 53 131 9 
E 53 265 7 
E 54 121 5 
E 54 370 2 
E 55 68 7 
E 56 268 7 
E 56 379 4 
E 57 177 6 
E 58 193 9 
E 58 256 1 
E 59 246 7 
E 59 353 6 
E 60 255 3 
E 61 191 10 
E 61 310 4 
E 62 262 6 
E 63 139 5 
E 63 359 10 
E 64 97 2 
E 65 155 2 
E 65 390 1 
E 66 328 8 
E 67 336 2 
E 68 98 1 
E 68 115 9 
E 69 272 5 
E 69 273 9 
E 69 322 7 
E 70 324 3 
E 71 308 6 
E 71 405 7 
E 72 224 4 
E 72 492 5 
E 73 151 1 
E 73 296 3 
E 73 330 3 
E 73 479 9 
E 74 119 5 
E 74 438 10 
E 75 104 4 
E 76 232 4 
E 77 138 10 
E 77 239 1 
E 78 232 5 
E 79 148 7 
E 80 229 6 
E 80 345 10 
E 80 404 1 
E 80 492 10 
E 81 103 10 
E 81 203 1 
E 82 354 7 
E 82 425 3 
E 83 166 1 
E 83 279 7 
E 83 350 3 
E 84 101 2 
E 84 193 3 
E 84 472 4 
E 84 484 10 
E 85 332 1 
E 86 216 1 
E 86 254 7 
E 86 466 5 
E 87 190 1 
E 87 496 5 
E 88 120 10 
E 88 387 5 
E 89 98 5 
E 89 490 3 
E 90 215 2 
E 90 233 1 
E 90 283 3 
E 90 414 5 
E 90 496 3 
E 91 157 2 
E 91 163 6 
E 91 232 1 
E 91 242 3 
E 91 246 10 
E 91 497 7 
E 92 199 7 
E 92 300 3 
E 93 498 2 
E 95 192 5 
E 96 479 10 
E 98 150 4 
E 98 210 7 
E 98 314 9 
E 98 360 9 
E 100 335 8 
E 102 292 3 
E 103 177 5 
E 103 261 9 
E 103 374 10 
E 103 479 8 
E 104 295 4 
E 105 431 2 
E 106 167 5 
E 106 257 1 
E 106 296 1 
E 106 371 5 
E 106 470 1 
E 107 277 2 
E 108 142 10 
E 108 164 1 
E 108 182 3 
E 108 306 8 
E 109 292 10 
E 109 414 4 
E 110 305 1 
E 110 473 9 
E 112 471 5 
E 113 406 1 
E 113 424 4 
E 116 133 2 
E 116 140 9 
E 116 253 10 
E 116 355 10 
E 116 377 10 
E 117 203 4 
E 117 212 6 
E 117 285 3 
E 117 384 8 
E 117 390 4 
E 118 300 9 
E 118 326 3 
E 120 320 8 
E 121 188 1 
E 121 259 10 
E 121 366 9 
E 122 331 9 
E 122 333 2 
E 123 126 2 
E 123 392 2 
E 123 419 10 
E 124 161 7 
E 124 232 4 
E 124 391 4 
E 126 220 4 
E 127 298 5 
E 127 303 9 
E 128 335 3 
E 128 369 2 
E 129 144 9 
E 129 376 1 
E 130 396 1 
E 130 480 3 
E 131 331 3 
E 131 347 8 
E 131 465 1 
E 132 209 6 
E 132 281 8 
E 132 289 6 
E 132 444 9 
E 133 156 10 
E 133 476 4 
E 134 272 2 
E 134 488 8 
E 135 142 8 
E 135 379 4 
E 135 498 6 
E 136 197 10 
E 137 201 7 
E 138 344 5 
E 138 422 8 
E 140 312 10 
E 141 291 5 
E 141 341 2 
E 141 418 5 
E 142 317 2 
E 143 148 3 
E 143 385 10 
E 143 452 7 
E 144 244 1 
E 144 334 4 
E 144 450 9 
E 144 465 10 
E 145 281 8 
E 146 307 5 
E 146 340 7 
E 146 375 8 
E 146 390 2 
E 147 382 5 
E 148 256 2 
E 148 339 7 
E 149 327 5 
E 150 272 3 
E 150 286 10 
E 150 410 5 
E 152 196 3 
E 153 179 10 
E 153 200 3 
E 154 445 4 
E 154 460 9 
E 155 314 6 
E 156 425 8 
E 158 238 8 
E 158 290 7 
E 159 464 2 
E 159 484 8 
E 160 171 1 
E 160 265 9 
E 160 279 9 
E 162 352 3 
E 163 258 7 
E 163 464 10 
E 163 474 5 
E 164 201 9 
E 164 332 7 
E 164 387 10 
E 166 473 4 
E 167 246 4 
E 167 303 3 
E 167 353 10 
E 168 263 4 
E 169 335 5 
E 170 225 6 
E 170 272 9 
E 170 315 5 
E 171 492 2 
E 172 212 1 
E 172 460 8 
E 173 188 9 
E 173 429 8 
E 174 187 1 
E 174 205 10 
E 174 276 2 
E 174 496 10 
E 175 357 9 
E 175 407 1 
E 175 489 9 
E 176 272 10 
E 176 315 6 
E 176 413 2 
E 177 284 3 
E 179 327 6 
E 179 488 6 
E 180 311 3 
E 181 239 3 
E 181 241 8 
E 181 311 3 
E 181 381 9 
E 183 494 2 
E 184 234 4 
E 184 375 3 
E 184 410 5 
E 184 481 2 
E 185 192 8 
E 186 360 6 
E 186 364 10 
E 188 223 1 
E 188 260 2 
E 188 285 3 
E 189 214 8 
E 189 316 6 
E 190 356 8 
E 191 264 10 
E 192 395 4 
E 193 215 6 
E 193 264 8 
E 194 238 2 
E 195 206 10 
E 195 222 3 
E 195 258 7 
E 195 351 2 
E 196 281 2 
E 196 383 5 
E 197 267 3 
E 197 384 10 
E 197 420 6 
E 198 208 3 
E 198 273 5 
E 199 297 1 
E 200 348 7 
E 201 399 8 
E 201 496 6 
E 202 206 8 
E 203 308 10 
E 203 388 3 
E 204 438 1 
E 204 448 7 
E 205 281 2 
E 206 483 2 
E 207 438 9 
E 208 487 9 
E 210 243 8 
E 210 417 4 
E 211 388 7 
E 212 222 8 
E 212 243 5 
E 212 316 5 
E 212 466 3 
E 213 290 1 
E 214 217 1 
E 214 417 7 
E 216 229 2 
E 216 427 4 
E 217 301 1 
E 218 479 7 
E 219 231 2 
E 220 235 6 
E 220 356 1 
E 221 365 2 
E 222 350 7 
E 222 387 4 
E 223 323 6 
E 223 459 10 
E 224 255 8 
E 224 274 9 
E 225 345 1 
E 226 239 2 
E 226 453 1 
E 227 338 7 
E 228 342 4 
E 228 447 7 
E 229 384 8 
E 230 318 4 
E 231 377 6 
E 232 465 10 
E 233 278 4 
E 234 416 3 
E 234 471 4 
E 234 487 10 
E 235 355 1 
E 236 348 7 
E 237 469 8 
E 238 355 5 
E 238 496 4 
E 238 499 6 
E 239 371 1 
E 239 379 4 
E 240 302 6 
E 240 412 1 
E 241 246 5 
E 242 417 8 
E 244 411 7 
E 245 478 8 
E 247 371 10 
E 247 434 2 
E 248 327 5 
E 249 369 6 
E 249 432 2 
E 249 496 5 
E 250 278 5 
E 250 455 7 
E 251 262 3 
E 251 480 9 
E 252 358 4 
E 252 467 1 
E 252 499 10 
E 254 388 1 
E 254 394 5 
E 255 278 8 
E 255 342 1 
E 255 482 9 
E 255 498 7 
E 256 464 8 
E 257 470 1 
E 262 447 10 
E 263 455 8 
E 264 271 4 
E 264 363 7 
E 264 498 8 
E 265 266 10 
E 266 439 7 
E 268 425 1 
E 269 273 1 
E 270 305 8 
E 270 329 10 
E 271 280 6 
E 271 300 1 
E 271 349 1 
E 271 387 1 
E 271 425 7 
E 271 465 4 
E 272 273 9 
E 272 381 10 
E 272 418 8 
E 272 423 10 
E 272 477 3 
E 273 426 2 
E 274 494 10 
E 275 447 9 
E 277 352 6 
E 277 434 7 
E 278 281 5 
E 278 340 4 
E 281 354 9 
E 283 472 10 
E 284 472 7 
E 287 305 3 
E 288 340 1 
E 289 366 9 
E 289 474 3 
E 290 328 6 
E 290 491 10 
E 292 464 7 
E 293 350 7 
E 293 386 3 
E 293 398 9 
E 294 425 1 
E 295 365 8 
E 295 423 6 
E 298 367 8 
E 299 420 8 
E 301 357 3 
E 302 341 9 
E 303 397 2 
E 304 434 8 
E 305 465 8 
E 305 492 3 
E 306 348 10 
E 306 376 8 
E 308 324 3 
E 308 354 3 
E 308 361 2 
E 309 373 7 
E 309 437 1 
E 311 362 10 
E 313 381 9 
E 318 497 1 
E 319 451 1 
E 319 494 6 
E 320 402 8 
E 320 440 5 
E 320 456 9 
E 325 381 2 
E 326 473 2 
E 328 485 4 
E 330 392 10 
E 335 350 6 
E 336 425 7 
E 337 433 1 
E 337 482 9 
E 338 369 4 
E 338 385 9 
E 339 446 9 
E 340 373 4 
E 341 483 5 
E 342 409 3 
E 343 382 3 
E 345 470 3 
E 346 426 8 
E 348 405 9 
E 348 466 9 
E 351 434 4 
E 352 500 5 
E 353 447 9 
E 354 486 3 
E 357 443 9 
E 361 364 2 
E 362 366 4 
E 363 439 2 
E 364 425 8 
E 364 431 7 
E 366 447 2 
E 366 492 6 
E 367 442 3 
E 367 478 2 
E 368 416 6 
E 369 430 5 
E 369 441 7 
E 372 414 5 
E 372 436 4 
E 372 474 8 
E 373 403 8 
E 376 462 10 
E 376 478 3 
E 376 484 4 
E 381 498 4 
E 382 425 1 
E 383 437 8 
E 388 457 3 
E 389 390 9 
E 390 458 3 
E 392 416 9 
E 393 491 7 
E 394 458 2 
E 396 443 2 
E 399 493 3 
E 400 431 9 
E 400 465 9 
E 401 406 2 
E 401 430 2 
E 403 418 6 
E 403 438 7 
E 405 488 8 
E 406 495 9 
E 409 447 9 
E 410 438 9 
E 410 463 3 
E 412 482 8 
E 415 426 3 
E 416 418 2 
E 416 454 3 
E 420 439 10 
E 421 461 1 
E 423 469 9 
E 426 452 6 
E 428 465 2 
E 429 437 5 
E 435 455 2 
E 448 480 4 
E 449 489 7 
E 454 455 7 
E 465 466 6 
E 465 496 10 
E 475 496 7 
E 478 495 1 
E 485 494 9 
E 489 491 9 
E 489 494 2 
E 491 498 5 
END 

SECTION ProfitableVertices 
ProfitableVertices 83 
PV 1 84
PV 15 29
PV 18 53
PV 29 47
PV 43 97
PV 64 97
PV 73 74
PV 76 24
PV 77 57
PV 78 66
PV 83 4
PV 84 94
PV 89 88
PV 114 11
PV 118 69
PV 123 33
PV 129 33
PV 130 73
PV 132 74
PV 133 15
PV 145 79
PV 146 70
PV 154 70
PV 156 79
PV 157 78
PV 188 65
PV 190 85
PV 191 93
PV 194 63
PV 203 34
PV 204 16
PV 209 23
PV 215 19
PV 216 34
PV 217 33
PV 218 62
PV 224 19
PV 237 54
PV 240 4
PV 241 63
PV 246 24
PV 249 92
PV 254 8
PV 261 97
PV 264 59
PV 265 86
PV 271 55
PV 276 6
PV 284 32
PV 298 26
PV 309 71
PV 311 65
PV 335 86
PV 340 74
PV 342 34
PV 344 58
PV 349 97
PV 357 75
PV 360 50
PV 363 77
PV 380 56
PV 387 74
PV 400 22
PV 408 66
PV 409 97
PV 414 45
PV 421 43
PV 425 71
PV 433 12
PV 437 55
PV 439 63
PV 440 26
PV 442 8
PV 448 29
PV 449 77
PV 451 72
PV 476 51
PV 481 74
PV 489 94
PV 493 23
PV 496 9
PV 498 41
PV 500 18
END 

EOF 
